0 1 1 1 0 0 0 0 1 0 0 
0 37 31 36 14 36 29 5 40 34 18 
37 0 23 18 16 37 34 31 3 29 8 
31 23 0 22 10 5 21 15 4 32 22 
36 18 22 0 25 21 17 40 32 25 36 
14 16 10 25 0 24 23 11 22 33 30 
36 37 5 21 24 0 31 39 28 3 25 
29 34 21 17 23 31 0 15 40 31 17 
5 31 15 40 11 39 15 0 4 11 13 
40 3 4 32 22 28 40 4 0 25 20 
34 29 32 25 33 3 31 11 25 0 31 
18 8 22 36 30 25 17 13 20 31 0 
4 3
1B 5B 3P 6B 10B 4P 7B 11B 2P 9P 8B = 111